50
2361 1032 3961 1550 666 4016 9180 8005 7652 2220 5367 2767 1727 1062 2145 9275 8290 8067 8005 1935 3099 6270 7319 8547 8801 868 6059 6718 5060 1778 4736 894 9346 8655 5477 3003 9089 5724 8824 8481 5084 4140 5990 4311 1614 3052 8126 433 464 6264 
1922 1101 3903 1236 1662 3407 9006 7410 7917 1772 5079 3261 1368 1179 2954 8477 7413 7524 8536 2166 2574 5932 6674 8465 7886 1303 6851 7628 5530 2698 3772 548 10278 9206 5298 3890 9330 6360 8411 7864 4972 3413 5753 5235 1276 2070 7215 243 1148 5989 
122529
